33D32945 STP File, STP Format Version 1.0

SECTION Comments
Name "shell_n10_d2_s21"
Problem "Euclidean Steiner Tree Problem"
Remark "Generated with STPGenerator. 2 dimensions."
END

SECTION Graph
Nodes 10
END

SECTION Coordinates
DD 0 0.0170664602 -0.9998543574
DD 1 -0.6427252016 0.7660968054
DD 2 -0.9650518270 0.2620590986
DD 3 -0.9371044300 0.3490491186
DD 4 0.8323225246 -0.5542916336
DD 5 -0.9261011842 -0.3772752265
DD 6 -0.2416652013 -0.9703596913
DD 7 -0.4853385634 -0.8743263000
DD 8 -0.8155374983 0.5787042326
DD 9 0.9973159356 -0.0732183345
END
